\* The_truck_routing_problem *\
Minimize
routing_cost: 290867.5 Pattern_0 + 38830.75 Pattern_1 + 24529.75 Pattern_10
 + 579668.25 Pattern_11 + 269311 Pattern_12 + 22527.75 Pattern_13
 + 528209.5 Pattern_14 + 174135.5 Pattern_15 + 589106 Pattern_16
 + 419137.25 Pattern_17 + 104370 Pattern_18 + 155366.75 Pattern_19
 + 407657.25 Pattern_2 + 297143 Pattern_20 + 152923.75 Pattern_21
 + 391315.75 Pattern_22 + 300245.75 Pattern_23 + 573196.75 Pattern_24
 + 512513.75 Pattern_25 + 54668.25 Pattern_26 + 369244.75 Pattern_27
 + 144739 Pattern_28 + 309856.75 Pattern_29 + 23189.25 Pattern_3
 + 57793.75 Pattern_4 + 419137.25 Pattern_5 + 392098 Pattern_6
 + 297853.5 Pattern_7 + 160275.5 Pattern_8 + 251095.25 Pattern_9
Subject To
Satisfying_demand_for_Noel_Leeming_Albany: Pattern_0 + Pattern_15 = 1
Satisfying_demand_for_Noel_Leeming_Botany: Pattern_12 + Pattern_27 = 1
Satisfying_demand_for_Noel_Leeming_Glenfield_Clearance: Pattern_0 + Pattern_15
 = 1
Satisfying_demand_for_Noel_Leeming_Henderson: Pattern_19 + Pattern_4 = 1
Satisfying_demand_for_Noel_Leeming_Lunn_Avenue: Pattern_23 + Pattern_7 = 1
Satisfying_demand_for_Noel_Leeming_Manukau_Supa_Centre: Pattern_12
 + Pattern_28 = 1
Satisfying_demand_for_Noel_Leeming_Manukau_Westfield: Pattern_13 + Pattern_28
 = 1
Satisfying_demand_for_Noel_Leeming_Massey: Pattern_18 + Pattern_2 = 1
Satisfying_demand_for_Noel_Leeming_New_Lynn: Pattern_19 + Pattern_3 = 1
Satisfying_demand_for_Noel_Leeming_Newmarket: Pattern_22 + Pattern_6 = 1
Satisfying_demand_for_Noel_Leeming_Ormiston: Pattern_14 + Pattern_28 = 1
Satisfying_demand_for_Noel_Leeming_Papakura: Pattern_24 + Pattern_9 = 1
Satisfying_demand_for_Noel_Leeming_Papatoetoe: Pattern_10 + Pattern_25 = 1
Satisfying_demand_for_Noel_Leeming_Penrose_Clearance: Pattern_10 + Pattern_25
 = 1
Satisfying_demand_for_Noel_Leeming_Queen_Street: Pattern_23 + Pattern_8 = 1
Satisfying_demand_for_Noel_Leeming_Royal_Oak: Pattern_22 + Pattern_8 = 1
Satisfying_demand_for_Noel_Leeming_St_Lukes_Mega: Pattern_19 + Pattern_4 = 1
Satisfying_demand_for_Noel_Leeming_St_Lukes_Westfield: Pattern_19 + Pattern_2
 = 1
Satisfying_demand_for_Noel_Leeming_Sylvia_Park: Pattern_10 + Pattern_26 = 1
Satisfying_demand_for_Noel_Leeming_Wairau_Park: Pattern_0 + Pattern_15 = 1
Satisfying_demand_for_The_Warehouse_Airport: Pattern_10 + Pattern_25 = 1
Satisfying_demand_for_The_Warehouse_Albany: Pattern_1 + Pattern_15 = 1
Satisfying_demand_for_The_Warehouse_Atrium: Pattern_22 + Pattern_6 = 1
Satisfying_demand_for_The_Warehouse_Botany_Downs: Pattern_13 + Pattern_27 = 1
Satisfying_demand_for_The_Warehouse_Clendon: Pattern_24 + Pattern_9 = 1
Satisfying_demand_for_The_Warehouse_Glenfield_Mall: Pattern_1 + Pattern_16 = 1
Satisfying_demand_for_The_Warehouse_Lincoln_Road: Pattern_18 + Pattern_3 = 1
Satisfying_demand_for_The_Warehouse_Lunn_Avenue: Pattern_23 + Pattern_7 = 1
Satisfying_demand_for_The_Warehouse_Manukau: Pattern_12 + Pattern_29 = 1
Satisfying_demand_for_The_Warehouse_Milford: Pattern_0 + Pattern_16 = 1
Satisfying_demand_for_The_Warehouse_Mt_Roskill: Pattern_18 + Pattern_4 = 1
Satisfying_demand_for_The_Warehouse_New_Lynn: Pattern_17 + Pattern_5 = 1
Satisfying_demand_for_The_Warehouse_Newmarket: Pattern_21 + Pattern_7 = 1
Satisfying_demand_for_The_Warehouse_Pakuranga: Pattern_13 + Pattern_27 = 1
Satisfying_demand_for_The_Warehouse_Royal_Oak: Pattern_21 + Pattern_6 = 1
Satisfying_demand_for_The_Warehouse_St_Lukes: Pattern_20 + Pattern_3 = 1
Satisfying_demand_for_The_Warehouse_Sylvia_Park: Pattern_11 + Pattern_26 = 1
Satisfying_demand_for_The_Warehouse_Takanini: Pattern_24 + Pattern_9 = 1
Satisfying_demand_for_The_Warehouse_WestCity: Pattern_17 + Pattern_5 = 1
Satisfying_demand_for_The_Warehouse_Westgate: Pattern_2 + Pattern_20 = 1
Binaries
Pattern_0
Pattern_1
Pattern_10
Pattern_11
Pattern_12
Pattern_13
Pattern_14
Pattern_15
Pattern_16
Pattern_17
Pattern_18
Pattern_19
Pattern_2
Pattern_20
Pattern_21
Pattern_22
Pattern_23
Pattern_24
Pattern_25
Pattern_26
Pattern_27
Pattern_28
Pattern_29
Pattern_3
Pattern_4
Pattern_5
Pattern_6
Pattern_7
Pattern_8
Pattern_9
End
